(set-info :source |
 Generated by Alive 0.1
 More info in N. P. Lopes, D. Menendez, S. Nagarakatte, J. Regehr.
 Provably Correct Peephole Optimizations with Alive. In PLDI'15.
|)

(set-info :status unknown)
(declare-fun C2 () (_ BitVec 25))
(declare-fun C () (_ BitVec 25))
(assert
 (let (($x435198 (bvsge ((_ zero_extend 7) (bvadd C C2)) (_ bv25 32))))
 (let (($x105095 (bvult C (_ bv25 25))))
 (let (($x322677 (bvult C2 (_ bv25 25))))
 (and $x322677 $x105095 $x435198 (not (bvult (bvsub (_ bv25 25) (_ bv1 25)) (_ bv25 25))))))))
(check-sat)
